O96Ru43Ti5
   1.00000000000000
     9.3565998077000003    0.0000000000000000    0.0000000000000000
     0.0000000000000000   12.7462997436999999    0.0000000000000000
     0.0000000000000000    0.0000000000000000   27.0342998504999983
    O   Ru   Ti
    96   43   5
Selective dynamics
Direct
  0.0000000000000000  0.0000000000000000  0.1375457088815968   F   F   F
  0.0000000000000000  0.2500000000058833  0.2608148567951481   F   F   F
 -0.0000000000000000  0.0000000000000000  0.3734366105093352   T   T   T
  0.0000000000000000  0.2500000000058833  0.4943586827102710   T   T   T
  0.0000000000000000  0.0000000000000000  0.0482833089124096   F   F   F
  0.0000000000000000  0.2500000000058833  0.1692053590672719   F   F   F
  0.0000000000000000  0.0000000000000000  0.2818271303887223   T   T   T
  0.0000000000000000  0.2500000000058833  0.4050962783392643   T   T   T
  0.1666677727163417  0.1549213818788014  0.0931802514110433   F   F   F
  0.1666682277600796  0.4028791812812679  0.2108948644422968   F   F   F
  0.1666682277600796  0.1528791812753776  0.3317471404228185   T   T   T
  0.1666677727163417  0.4049213725486434  0.4494617534540720   T   T   T
  0.1666677727163417  0.3450786274690136  0.0931802514110433   F   F   F
  0.1666682277600796  0.0971208187305058  0.2108948644422968   F   F   F
  0.1666682277600796  0.3471208187363891  0.3317471404228185   T   T   T
  0.1666677727163417  0.0950786274631231  0.4494617534540720   T   T   T
  0.3333428066262667  0.0000000000000000  0.1375373501698998   F   F   F
  0.3333401664540314  0.2500000000058833  0.2608153031214270   F   F   F
  0.3333360973050417  0.0000000000000000  0.3734396682840985   T   T   T
  0.3333217478380947  0.2500000000058833  0.4943529322072662   T   T   T
  0.3333217478380947  0.0000000000000000  0.0482890549766041   F   F   F
  0.3333360973050417  0.2500000000058833  0.1692023189367626   F   F   F
  0.3333401664540314  0.0000000000000000  0.2818266840624433   T   T   T
  0.3333428066262667  0.2500000000058833  0.4051046634988471   T   T   T
  0.5000000000160298  0.1549347184000077  0.0931795056863675   F   F   F
  0.5000000000160298  0.4028830230930358  0.2108884348397664   F   F   F
  0.5000000000160298  0.1528830511737345  0.3317535699883580   T   T   T
  0.5000000000160298  0.4049347370779735  0.4494625079823794   T   T   T
  0.5000000000160298  0.3450652628612254  0.0931795056863675   F   F   F
  0.5000000000160298  0.0971169488321488  0.2108884348397664   F   F   F
  0.5000000000160298  0.3471169769246212  0.3317535699883580   T   T   T
  0.5000000000160298  0.0950652722698343  0.4494625079823794   T   T   T
  0.6666571934057930  0.0000000000000000  0.1375373501698998   F   F   F
  0.6666598081414439  0.2500000000058833  0.2608153031214270   F   F   F
  0.6666638771835538  0.0000000000000000  0.3734396682840985   T   T   T
  0.6666782266505008  0.2500000000058833  0.4943529322072662   T   T   T
  0.6666782266505008  0.0000000000000000  0.0482890549766041   F   F   F
  0.6666638771835538  0.2500000000058833  0.1692023189367626   F   F   F
  0.6666598081414439  0.0000000000000000  0.2818266840624433   T   T   T
  0.6666571934057930  0.2500000000058833  0.4051046634988471   T   T   T
  0.8333322527523167  0.1549213818788014  0.0931802514110433   F   F   F
  0.8333317595536843  0.4028791812812679  0.2108948644422968   F   F   F
  0.8333317595536843  0.1528791812753776  0.3317471404228185   T   T   T
  0.8333322527523167  0.4049213725486434  0.4494617534540720   T   T   T
  0.8333322527523167  0.3450786274690136  0.0931802514110433   F   F   F
  0.8333317595536843  0.0971208187305058  0.2108948644422968   F   F   F
  0.8333317595536843  0.3471208187363891  0.3317471404228185   T   T   T
  0.8333322527523167  0.0950786274631231  0.4494617534540720   T   T   T
  0.0000000000000000  0.5000000000117666  0.1375457088815968   F   F   F
  0.0000000000000000  0.7500000000176499  0.2608148567951481   F   F   F
 -0.0000000000000000  0.5000000000117666  0.3734366105093352   T   T   T
  0.0000000000000000  0.7500000000176499  0.4943586827102710   T   T   T
  0.0000000000000000  0.5000000000117666  0.0482833089124096   F   F   F
  0.0000000000000000  0.7500000000176499  0.1692053590672719   F   F   F
  0.0000000000000000  0.5000000000117666  0.2818271303887223   T   T   T
  0.0000000000000000  0.7500000000176499  0.4050962783392643   T   T   T
  0.1666677727163417  0.6549213725545270  0.0931802514110433   F   F   F
  0.1666682277600796  0.9028791812930345  0.2108948644422968   F   F   F
  0.1666682277600796  0.6528791812871512  0.3317471404228185   T   T   T
  0.1666677727163417  0.9049213725604103  0.4494617534540720   T   T   T
  0.1666677727163417  0.8450786274807799  0.0931802514110433   F   F   F
  0.1666682277600796  0.5971208187422724  0.2108948644422968   F   F   F
  0.1666682277600796  0.8471208186696976  0.3317471404228185   T   T   T
  0.1666677727163417  0.5950786274748966  0.4494617534540720   T   T   T
  0.3333428066262667  0.5000000000117666  0.1375373501698998   F   F   F
  0.3333401664540314  0.7500000000176499  0.2608153031214270   F   F   F
  0.3333360973050417  0.5000000000117666  0.3734396682840985   T   T   T
  0.3333217478380947  0.7500000000176499  0.4943529322072662   T   T   T
  0.3333217478380947  0.5000000000117666  0.0482890549766041   F   F   F
  0.3333360973050417  0.7500000000176499  0.1692023189367626   F   F   F
  0.3333401664540314  0.5000000000117666  0.2818266840624433   T   T   T
  0.3333428066262667  0.7500000000176499  0.4051046634988471   T   T   T
  0.5000000000160298  0.6549346996612336  0.0931795056863675   F   F   F
  0.5000000000160298  0.9028840705460404  0.2108884348397664   F   F   F
  0.5000000000160298  0.6528840705401571  0.3317535699883580   T   T   T
  0.5000000000160298  0.9049346996671169  0.4494625079823794   T   T   T
  0.5000000000160298  0.8450653002956151  0.0931795056863675   F   F   F
  0.5000000000160298  0.5971169395078739  0.2108884348397664   F   F   F
  0.5000000000160298  0.8471159294166917  0.3317535699883580   T   T   T
  0.5000000000160298  0.5950653002897318  0.4494625079823794   T   T   T
  0.6666571934057930  0.5000000000117666  0.1375373501698998   F   F   F
  0.6666598081414439  0.7500000000176499  0.2608153031214270   F   F   F
  0.6666638771835538  0.5000000000117666  0.3734396682840985   T   T   T
  0.6666782266505008  0.7500000000176499  0.4943529322072662   T   T   T
  0.6666782266505008  0.5000000000117666  0.0482890549766041   F   F   F
  0.6666638771835538  0.7500000000176499  0.1692023189367626   F   F   F
  0.6666598081414439  0.5000000000117666  0.2818266840624433   T   T   T
  0.6666571934057930  0.7500000000176499  0.4051046634988471   T   T   T
  0.8333322527523167  0.6549213725545270  0.0931802514110433   F   F   F
  0.8333317595536843  0.9028791812930345  0.2108948644422968   F   F   F
  0.8333317595536843  0.6528791812871512  0.3317471404228185   T   T   T
  0.8333322527523167  0.9049213725604103  0.4494617534540720   T   T   T
  0.8333322527523167  0.8450786274807799  0.0931802514110433   F   F   F
  0.8333317595536843  0.5971208187422724  0.2108948644422968   F   F   F
  0.8333317595536843  0.8471208186696976  0.3317471404228185   T   T   T
  0.8333322527523167  0.5950786274748966  0.4494617534540720   T   T   T
  0.3333405817304688  0.5000000000117666  0.4429512537790378   T   T   T
  0.0000000000000000  0.2500000000058833  0.3333978516768346   T   T   T
  0.1666627722180251  0.0000000000000000  0.0891598868994763   F   F   F
  0.1666683435730882  0.2500000000058833  0.2149447553833464   F   F   F
  0.1666683435730882  0.0000000000000000  0.3276972318375149   T   T   T
  0.1666627722180251  0.2500000000058833  0.4534821267692705   T   T   T
  0.3333405817304688  0.2500000000058833  0.0996907510860774   F   F   F
  0.3333303539933449  0.0000000000000000  0.2092398285487669   F   F   F
  0.3333303539933449  0.2500000000058833  0.3334021939236116   T   T   T
  0.3333405817304688  0.0000000000000000  0.4429512537790378   T   T   T
  0.5000000000160298  0.0000000000000000  0.0891599147003177   F   F   F
  0.5000000000160298  0.2500000000058833  0.2149435354524403   F   F   F
  0.5000000000160298  0.0000000000000000  0.3276984693756841   T   T   T
  0.5000000000160298  0.2500000000058833  0.4534820813241751   T   T   T
  0.6666604120386515  0.2500000000058833  0.0996907510860774   F   F   F
  0.6666696204952505  0.0000000000000000  0.2092398285487669   F   F   F
  0.6666696204952505  0.2500000000058833  0.3334021939236116   T   T   T
  0.6666604120386515  0.0000000000000000  0.4429512537790378   T   T   T
  0.8333372405323303  0.0000000000000000  0.0891598868994763   F   F   F
  0.8333306498967424  0.2500000000058833  0.2149447553833464   F   F   F
  0.8333306498967424  0.0000000000000000  0.3276972318375149   T   T   T
  0.8333372405323303  0.2500000000058833  0.4534821267692705   T   T   T
  0.0000000000000000  0.7500000000176499  0.0996994332661325   F   F   F
  0.0000000000000000  0.5000000000117666  0.2092441531882808   F   F   F
  0.0000000000000000  0.5000000000117666  0.4429425627583603   T   T   T
  0.1666627722180251  0.5000000000117666  0.0891598868994763   F   F   F
  0.1666683435730882  0.7500000000176499  0.2149447553833464   F   F   F
  0.1666683435730882  0.5000000000117666  0.3276972318375149   T   T   T
  0.1666627722180251  0.7500000000176499  0.4534821267692705   T   T   T
  0.3333405817304688  0.7500000000176499  0.0996907510860774   F   F   F
  0.3333303539933449  0.7500000000176499  0.3334021939236116   T   T   T
  0.5000000000160298  0.5000000000117666  0.0891599147003177   F   F   F
  0.5000000000160298  0.7500000000176499  0.2149435354524403   F   F   F
  0.5000000000160298  0.5000000000117666  0.3276984693756841   T   T   T
  0.5000000000160298  0.7500000000176499  0.4534820813241751   T   T   T
  0.6666604120386515  0.7500000000176499  0.0996907510860774   F   F   F
  0.6666696204952505  0.5000000000117666  0.2092398285487669   F   F   F
  0.6666696204952505  0.7500000000176499  0.3334021939236116   T   T   T
  0.6666604120386515  0.5000000000117666  0.4429512537790378   T   T   T
  0.8333372405323303  0.5000000000117666  0.0891598868994763   F   F   F
  0.8333306498967424  0.7500000000176499  0.2149447553833464   F   F   F
  0.8333306498967424  0.5000000000117666  0.3276972318375149   T   T   T
  0.8333372405323303  0.7500000000176499  0.4534821267692705   T   T   T
  0.3333303539933449  0.5000000000117666  0.2092398285487669   F   F   F
  0.0000000000000000  0.7500000000176499  0.3333978516768346   T   T   T
  0.0000000000000000  0.2500000000058833  0.0996994332661325   F   F   F
  0.0000000000000000  0.0000000000000000  0.2092441531882808   F   F   F
  0.0000000000000000  0.0000000000000000  0.4429425627583603   T   T   T
