System=SHANG
ALGO=Fast
ISTART=0
ISMEAR=0
SIGMA=0.05
ICHARG=2
ISPIN=2
GGA=PE
IBRION=2
ISIF=2
IVDW=11
EDIFF=1.0E-05
NELM=100
EDIFFG=-0.02
NSW=350
ENCUT=500
LORBIT=10
LREAL=Auto
LCHARG =.FALSE.
LWAVE =.FALSE.
